rel = [{1, 2, 4}, {1, 2, 3, 5}, {2, 3, 6}, {1, 4, 5, 7}, {2, 4, 5, 6, 8}, {9, 3, 5, 6}, {8, 4, 7}, {8, 9, 5, 7}, {8, 9, 6}];
as = [|7, 1|3, 2|1, 3|6, 4|4, 5|9, 6|2, 7|8, 8|];
rel_len = 9;
as_len = 8;
k=8;
makespan=30;
